c File: instances/36_0.25_2.col
c
c Description: Random graph of size 36 vertices and P(0.25) of edges between any two vertices.
p col 36 630
e 1 3
e 1 7
e 1 9
e 1 12
e 1 15
e 1 19
e 1 22
e 1 25
e 1 27
e 1 29
e 1 30
e 1 32
e 2 3
e 2 6
e 2 10
e 2 12
e 2 15
e 2 16
e 2 19
e 2 21
e 2 24
e 2 28
e 2 30
e 2 33
e 2 36
e 3 10
e 3 11
e 3 17
e 3 19
e 3 20
e 3 27
e 3 35
e 3 36
e 4 9
e 4 15
e 4 20
e 4 31
e 4 35
e 5 6
e 5 14
e 5 15
e 5 17
e 5 21
e 5 24
e 5 31
e 6 8
e 6 9
e 6 11
e 6 17
e 6 18
e 6 27
e 6 32
e 6 33
e 6 34
e 7 8
e 7 9
e 7 23
e 7 27
e 7 28
e 7 30
e 7 34
e 7 35
e 8 10
e 8 11
e 8 12
e 8 14
e 8 16
e 8 19
e 8 21
e 8 23
e 8 25
e 8 29
e 8 31
e 8 35
e 9 10
e 9 26
e 9 27
e 9 36
e 10 14
e 10 15
e 10 23
e 10 25
e 10 27
e 10 30
e 10 31
e 11 12
e 11 26
e 11 31
e 11 34
e 12 15
e 12 20
e 12 22
e 12 23
e 13 15
e 13 16
e 13 18
e 13 22
e 13 32
e 14 16
e 14 17
e 14 19
e 14 22
e 14 27
e 14 28
e 14 32
e 15 19
e 15 35
e 16 22
e 16 25
e 16 26
e 16 27
e 16 28
e 16 30
e 16 32
e 16 35
e 17 18
e 17 19
e 17 25
e 17 27
e 18 22
e 18 24
e 18 25
e 18 26
e 18 28
e 18 29
e 19 21
e 19 27
e 19 30
e 19 33
e 19 34
e 20 28
e 20 31
e 20 32
e 20 34
e 21 31
e 22 30
e 22 35
e 23 27
e 23 28
e 23 30
e 23 33
e 23 35
e 24 32
e 25 29
e 25 32
e 25 34
e 25 36
e 26 30
e 26 32
e 27 29
e 27 30
e 27 31
e 27 35
e 28 32
e 28 33
e 28 35
e 29 33
e 29 34
e 29 35
e 30 31
e 30 34
e 31 33
e 33 35